%mem=1GB
%nproc=4
#p B3LYP/6-31G(d) opt freq

Title Card Required 

0  1
C           0.97288        -0.02577         0.09274
C           0.46621        -1.39402        -0.33339
O           0.93954        -2.37790         0.57454
H           0.61622         0.19603         1.07686
H           0.61622         0.71560        -0.59141
H           2.04288        -0.02577         0.09274
H          -0.60379        -1.39402        -0.33339
H           0.82288        -1.61582        -1.31751
H           1.93954        -2.37790         0.57454

